85 50 27 67 89 98 65 56 36 63 15 45 22 84 14 21 25 77 74 7 82 30 41 12 93 1 44 92 35 20 62 28 78 86 33 31 58 46 52 87 38 26 3 80 95 73 64 61 6 59 69 4 57 23 49 68 48 90 55 9 71 40 79 0 75 81 13 32 91 54 5 83 47 51 11 96 53 42 76 88 37 66 16 97 99 17 39 24 2 34 29 60 70 43 19 10 72 18 8 94